123 5
10 10 10 10 10 

0 0 0 0 0 0 1 2 
0 0 0 0 0 0 5 3 4 5 7 8 
2 0 0 1 0 0 2 12 6 
9 0 0 4 0 0 4 12 11 10 9 
7 0 0 6 0 0 1 6 
4 0 0 6 0 0 3 11 10 9 
4 0 0 4 0 0 3 12 10 9 
7 0 0 6 0 0 3 11 10 9 
5 0 0 4 0 0 1 13 
9 0 0 6 0 0 1 13 
9 0 0 7 0 0 1 13 
8 0 0 6 0 0 1 13 
0 0 0 0 0 0 1 14 
0 0 0 0 0 0 4 15 22 23 24 
3 2 0 0 0 0 3 21 20 16 
9 4 0 0 0 0 3 19 18 17 
2 2 0 0 0 0 1 25 
6 7 0 0 0 0 1 25 
1 10 0 0 0 0 1 25 
10 4 0 0 0 0 1 25 
9 7 0 0 0 0 1 25 
8 5 0 0 0 0 1 25 
9 6 0 0 0 0 1 25 
3 3 0 0 0 0 1 25 
0 0 0 0 0 0 1 26 
0 0 0 0 0 0 4 27 28 29 32 
3 0 1 0 0 0 4 36 35 34 30 
5 0 3 0 0 0 3 36 31 30 
2 0 4 0 0 0 2 35 33 
8 0 3 0 0 0 1 33 
8 0 6 0 0 0 1 33 
7 0 4 0 0 0 1 34 
1 0 7 0 0 0 1 37 
9 0 6 0 0 0 1 37 
1 0 7 0 0 0 1 37 
1 0 9 0 0 0 1 37 
0 0 0 0 0 0 2 38 50 
0 0 0 0 0 0 4 39 40 41 43 
7 1 0 0 0 0 4 48 47 45 42 
5 7 0 0 0 0 3 47 46 42 
4 7 0 0 0 0 2 46 44 
1 3 0 0 0 0 1 44 
4 6 0 0 0 0 1 45 
2 3 0 0 0 0 1 49 
8 6 0 0 0 0 1 49 
3 5 0 0 0 0 1 49 
5 7 0 0 0 0 2 49 95 
5 5 0 0 0 0 1 49 
0 0 0 0 0 0 1 62 
0 0 0 0 0 0 4 51 52 54 55 
10 0 0 0 1 0 3 60 56 53 
10 0 0 0 7 0 2 56 53 
2 0 0 0 6 0 3 59 58 57 
5 0 0 0 4 0 3 60 59 57 
7 0 0 0 7 0 3 60 58 57 
9 0 0 0 4 0 1 57 
6 0 0 0 5 0 2 61 64 
5 0 0 0 7 0 1 61 
3 0 0 0 1 0 1 61 
9 0 0 0 8 0 1 61 
0 0 0 0 0 0 1 62 
0 0 0 0 0 0 5 63 75 87 99 111 
0 0 0 0 0 0 5 64 65 67 68 69 
6 0 0 2 0 0 2 71 66 
3 0 0 4 0 0 2 71 66 
1 0 0 8 0 0 4 73 72 70 94 
5 0 0 3 0 0 2 71 70 
9 0 0 6 0 0 1 71 
5 0 0 1 0 0 1 70 
6 0 0 10 0 0 1 74 
8 0 0 4 0 0 1 74 
6 0 0 8 0 0 1 74 
3 0 0 4 0 0 1 74 
0 0 0 0 0 0 1 123 
0 0 0 0 0 0 4 76 77 78 79 
7 0 0 0 0 1 3 85 81 80 
1 0 0 0 0 3 2 85 80 
5 0 0 0 0 8 2 85 80 
7 0 0 0 0 7 1 80 
7 0 0 0 0 5 3 84 83 82 
6 0 0 0 0 7 3 84 83 82 
10 0 0 0 0 10 1 86 
8 0 0 0 0 5 1 86 
4 0 0 0 0 1 1 86 
3 0 0 0 0 3 1 86 
0 0 0 0 0 0 1 123 
0 0 0 0 0 0 4 88 89 90 93 
7 0 0 1 0 0 3 96 92 91 
5 0 0 8 0 0 4 97 96 95 94 
3 0 0 3 0 0 3 96 94 92 
2 0 0 7 0 0 2 97 94 
5 0 0 6 0 0 1 95 
7 0 0 4 0 0 1 94 
5 0 0 5 0 0 1 98 
7 0 0 7 0 0 1 98 
2 0 0 3 0 0 1 98 
9 0 0 6 0 0 1 98 
0 0 0 0 0 0 1 123 
0 0 0 0 0 0 5 100 102 103 108 109 
9 0 1 0 0 0 3 107 106 101 
3 0 5 0 0 0 1 105 
5 0 4 0 0 0 1 104 
7 0 1 0 0 0 1 104 
6 0 9 0 0 0 1 110 
3 0 7 0 0 0 1 110 
4 0 4 0 0 0 1 110 
10 0 7 0 0 0 1 110 
8 0 8 0 0 0 1 110 
10 0 4 0 0 0 1 110 
0 0 0 0 0 0 1 123 
0 0 0 0 0 0 5 112 113 116 117 121 
9 0 4 0 0 0 3 120 118 114 
8 0 3 0 0 0 2 119 115 
3 0 5 0 0 0 1 119 
5 0 3 0 0 0 1 118 
2 0 5 0 0 0 1 118 
3 0 6 0 0 0 1 118 
10 0 4 0 0 0 1 122 
7 0 8 0 0 0 1 122 
6 0 10 0 0 0 1 122 
4 0 2 0 0 0 1 122 
0 0 0 0 0 0 1 123 
0 0 0 0 0 0 0 
